20	5
0	6	4	5	2	6	1	3
1	1	8
2	1	7
3	1	14
4	2	9	16
5	0
6	1	17
7	1	15
8	1	12
9	1	10
10	1	18
11	1	14
12	3	16	13	7
13	3	20	19	9
14	2	20	17
15	2	20	17
16	3	18	15	11
17	1	19
18	1	21
19	1	21
20	1	21
21	0
0	0	0	0	0	0	0
1	6	2	2	0	1	2
2	7	0	5	1	0	0
3	6	0	0	5	0	0
4	6	0	4	2	0	5
5	6	3	3	5	0	1
6	4	3	2	0	1	0
7	1	2	1	0	0	0
8	2	4	1	2	2	1
9	9	0	1	0	1	0
10	3	1	0	0	0	4
11	2	0	1	0	5	3
12	2	0	0	0	3	3
13	9	4	0	0	3	0
14	4	3	0	0	0	0
15	5	5	2	0	1	0
16	1	0	0	0	0	4
17	6	2	2	0	0	0
18	7	3	4	1	4	2
19	6	0	4	0	0	0
20	5	0	0	0	4	2
21	0	0	0	0	0	0
7	7	9	8	9
